# Objective value = 116
x0,1_2 0
x0,1_6 0
x0,1_11 0
x0,1_12 0
x0,1_13 0
x0,1_14 0
x0,1_18 0
x0,1_20 0
x0,1_25 0
x0,1_31 0
x0,1_32 0
x0,1_34 0
x0,1_45 0
x0,2_2 1
x0,2_6 0
x0,2_11 0
x0,2_12 0
x0,2_13 0
x0,2_14 0
x0,2_18 0
x0,2_20 0
x0,2_25 0
x0,2_31 0
x0,2_32 0
x0,2_34 0
x0,2_45 0
x0,3_2 0
x0,3_6 0
x0,3_11 0
x0,3_12 0
x0,3_13 0
x0,3_14 1
x0,3_18 0
x0,3_20 0
x0,3_25 0
x0,3_31 0
x0,3_32 0
x0,3_34 0
x0,3_45 0
x0,4_2 0
x0,4_6 0
x0,4_11 0
x0,4_12 0
x0,4_13 0
x0,4_14 0
x0,4_18 0
x0,4_20 1
x0,4_25 0
x0,4_31 0
x0,4_32 0
x0,4_34 0
x0,4_45 0
x0,5_2 0
x0,5_6 0
x0,5_11 0
x0,5_12 0
x0,5_13 0
x0,5_14 0
x0,5_18 0
x0,5_20 0
x0,5_25 0
x0,5_31 0
x0,5_32 0
x0,5_34 1
x0,5_45 0
x0,6_2 0
x0,6_6 0
x0,6_11 0
x0,6_12 0
x0,6_13 0
x0,6_14 0
x0,6_18 0
x0,6_20 0
x0,6_25 0
x0,6_31 0
x0,6_32 0
x0,6_34 0
x0,6_45 1
x1,2_2 0
x1,2_6 0
x1,2_11 0
x1,2_12 0
x1,2_13 0
x1,2_14 0
x1,2_18 0
x1,2_20 0
x1,2_25 0
x1,2_31 0
x1,2_32 0
x1,2_34 0
x1,2_45 0
x1,3_2 0
x1,3_6 0
x1,3_11 0
x1,3_12 0
x1,3_13 1
x1,3_14 0
x1,3_18 0
x1,3_20 0
x1,3_25 0
x1,3_31 0
x1,3_32 0
x1,3_34 0
x1,3_45 0
x1,4_2 0
x1,4_6 0
x1,4_11 0
x1,4_12 0
x1,4_13 0
x1,4_14 0
x1,4_18 0
x1,4_20 0
x1,4_25 0
x1,4_31 0
x1,4_32 0
x1,4_34 0
x1,4_45 0
x1,5_2 0
x1,5_6 0
x1,5_11 0
x1,5_12 0
x1,5_13 0
x1,5_14 0
x1,5_18 0
x1,5_20 0
x1,5_25 0
x1,5_31 0
x1,5_32 0
x1,5_34 0
x1,5_45 0
x1,6_2 0
x1,6_6 0
x1,6_11 0
x1,6_12 0
x1,6_13 0
x1,6_14 0
x1,6_18 0
x1,6_20 0
x1,6_25 0
x1,6_31 0
x1,6_32 0
x1,6_34 0
x1,6_45 0
x2,3_2 0
x2,3_6 0
x2,3_11 0
x2,3_12 1
x2,3_13 0
x2,3_14 0
x2,3_18 0
x2,3_20 0
x2,3_25 0
x2,3_31 0
x2,3_32 0
x2,3_34 0
x2,3_45 0
x2,4_2 0
x2,4_6 0
x2,4_11 0
x2,4_12 0
x2,4_13 0
x2,4_14 0
x2,4_18 1
x2,4_20 0
x2,4_25 0
x2,4_31 0
x2,4_32 0
x2,4_34 0
x2,4_45 0
x2,5_2 0
x2,5_6 0
x2,5_11 0
x2,5_12 0
x2,5_13 0
x2,5_14 0
x2,5_18 0
x2,5_20 0
x2,5_25 0
x2,5_31 0
x2,5_32 1
x2,5_34 0
x2,5_45 0
x2,6_2 0
x2,6_6 0
x2,6_11 0
x2,6_12 0
x2,6_13 0
x2,6_14 0
x2,6_18 0
x2,6_20 0
x2,6_25 0
x2,6_31 0
x2,6_32 0
x2,6_34 0
x2,6_45 0
x3,4_2 0
x3,4_6 1
x3,4_11 0
x3,4_12 0
x3,4_13 0
x3,4_14 0
x3,4_18 0
x3,4_20 0
x3,4_25 0
x3,4_31 0
x3,4_32 0
x3,4_34 0
x3,4_45 0
x3,5_2 0
x3,5_6 0
x3,5_11 0
x3,5_12 0
x3,5_13 0
x3,5_14 0
x3,5_18 0
x3,5_20 1
x3,5_25 0
x3,5_31 0
x3,5_32 0
x3,5_34 0
x3,5_45 0
x3,6_2 0
x3,6_6 0
x3,6_11 0
x3,6_12 0
x3,6_13 0
x3,6_14 0
x3,6_18 0
x3,6_20 0
x3,6_25 0
x3,6_31 1
x3,6_32 0
x3,6_34 0
x3,6_45 0
x4,5_2 0
x4,5_6 0
x4,5_11 0
x4,5_12 0
x4,5_13 0
x4,5_14 1
x4,5_18 0
x4,5_20 0
x4,5_25 0
x4,5_31 0
x4,5_32 0
x4,5_34 0
x4,5_45 0
x4,6_2 0
x4,6_6 0
x4,6_11 0
x4,6_12 0
x4,6_13 0
x4,6_14 0
x4,6_18 0
x4,6_20 0
x4,6_25 1
x4,6_31 0
x4,6_32 0
x4,6_34 0
x4,6_45 0
x5,6_2 0
x5,6_6 0
x5,6_11 1
x5,6_12 0
x5,6_13 0
x5,6_14 0
x5,6_18 0
x5,6_20 0
x5,6_25 0
x5,6_31 0
x5,6_32 0
x5,6_34 0
x5,6_45 0
p0 0
p1 1
p2 2
p3 14
p4 20
p5 34
p6 45
